(set-info :original "03-prusti/prusti-4-pass-paper_examples-borrows_align.bc")
(set-info :authors "SeaHorn v.0.1.0-rc3")
(declare-rel verifier.error (Bool Bool Bool ))
(declare-rel main@entry (Int ))
(declare-rel main@entry.split ())
(declare-var main@%_0_0 Int )
(declare-var main@%_1_0 Int )
(declare-var main@%_2_0 Int )
(declare-var main@%_3_0 Int )
(declare-var main@%_4_0 Int )
(declare-var @nd_0 Int )
(declare-var main@%_5_0 Int )
(declare-var main@entry_0 Bool )
(declare-var main@entry.split_0 Bool )
(rule (verifier.error false false false))
(rule (verifier.error false true true))
(rule (verifier.error true false true))
(rule (verifier.error true true true))
(rule (main@entry @nd_0))
(rule (=> (and (main@entry @nd_0)
         true
         (> main@%_0_0 0)
         (> main@%_1_0 0)
         (= main@%_2_0 main@%_0_0)
         (= main@%_3_0 main@%_1_0)
         (= main@%_4_0 @nd_0)
         (= main@%_5_0 @nd_0)
         false
         (=> main@entry.split_0 (and main@entry.split_0 main@entry_0))
         main@entry.split_0)
    main@entry.split))
(query main@entry.split)

